(declare-const __VERIFIER_assert__cond___54 Int)
(declare-const |phi___VERIFIER_assert__cond___141:1912:2089:2439| Int)
(declare-const __VERIFIER_assert__cond___23 Int)
(declare-const __VERIFIER_assert__cond___60 Int)
(declare-const |phi___VERIFIER_assert__cond___135:735:1959:2309| Int)
(declare-const __VERIFIER_assert__cond___83 Int)
(declare-const |phi___VERIFIER_assert__cond___132:703:1991:2341| Int)
(declare-const |phi___VERIFIER_assert__cond___117:1936:2065:2415| Int)
(declare-const __VERIFIER_assert__cond___124 Int)
(declare-const |phi___VERIFIER_assert__cond___138:732:1962:2312| Int)
(declare-const |phi___VERIFIER_assert__cond___56:884:1030:2171| Int)
(declare-const __VERIFIER_assert__cond___84 Int)
(declare-const |phi___VERIFIER_assert__cond___117:718:1976:2326| Int)
(declare-const |phi___VERIFIER_assert__cond___16:956:961:2102| Int)
(declare-const __VERIFIER_assert__cond___56 Int)
(declare-const |phi___VERIFIER_assert__cond___119:751:1943:2293| Int)
(declare-const __VERIFIER_assert__cond___123 Int)
(declare-const |phi___VERIFIER_assert__cond___53:887:1027:2168| Int)
(declare-const |phi___VERIFIER_assert__cond___144:726:1968:2318| Int)
(declare-const __VERIFIER_assert__cond___126 Int)
(declare-const __VERIFIER_assert__cond___127 Int)
(declare-const __VERIFIER_assert__cond___95 Int)
(declare-const |phi___VERIFIER_assert__cond___89:819:1092:2233| Int)
(declare-const __VERIFIER_assert__cond___120 Int)
(declare-const |phi___VERIFIER_assert__cond___49:891:1023:2164| Int)
(declare-const havoc Int)
(declare-const __VERIFIER_assert__cond___59 Int)
(declare-const |phi___VERIFIER_assert__cond___93:815:1096:2237| Int)
(declare-const |phi___VERIFIER_assert__cond___119:716:1978:2328| Int)
(declare-const |phi___VERIFIER_assert__cond___141:729:1965:2315| Int)
(declare-const |phi___VERIFIER_assert__cond___87:821:1090:2231| Int)
(declare-const |phi___VERIFIER_assert__cond___146:724:1970:2320| Int)
(declare-const __VERIFIER_assert__cond___91 Int)
(declare-const __VERIFIER_assert__cond___151 Int)
(declare-const |phi___VERIFIER_assert__cond___150:720:1974:2324| Int)
(declare-const __VERIFIER_assert__cond___49 Int)
(declare-const __VERIFIER_assert__cond___119 Int)
(declare-const |phi___VERIFIER_assert__cond___139:731:1963:2313| Int)
(declare-const |phi___VERIFIER_assert__cond___96:812:1099:2240| Int)
(declare-const |phi___VERIFIER_assert__cond___125:710:1984:2334| Int)
(declare-const |main__j':617:759:2058:2408| Int)
(declare-const |phi___VERIFIER_assert__cond___142:728:1966:2316| Int)
(declare-const |main__i':616:626:629:1901:2062:2412| Int)
(declare-const |phi___VERIFIER_assert__cond___52:888:1026:2167| Int)
(declare-const __VERIFIER_assert__cond___131 Int)
(declare-const __VERIFIER_assert__cond___121 Int)
(declare-const |phi___VERIFIER_assert__cond___130:705:1989:2339| Int)
(declare-const __VERIFIER_assert__cond___93 Int)
(declare-const |phi___VERIFIER_assert__cond___62:878:1036:2177| Int)
(declare-const |K:639:756:2055:2405| Int)
(declare-const |phi___VERIFIER_assert__cond___127:1926:2075:2425| Int)
(declare-const |phi___VERIFIER_assert__cond___126:709:1985:2335| Int)
(declare-const |phi___VERIFIER_assert__cond___91:817:1094:2235| Int)
(declare-const |phi___VERIFIER_assert__cond___124:711:1983:2333| Int)
(declare-const |phi___VERIFIER_assert__cond___24:948:969:2110| Int)
(declare-const |phi___VERIFIER_assert__cond___129:741:1953:2303| Int)
(declare-const |phi___VERIFIER_assert__cond___131:1922:2079:2429| Int)
(declare-const __VERIFIER_assert__cond___85 Int)
(declare-const |phi_main__j:958:959:2100| Int)
(declare-const |phi___VERIFIER_assert__cond___149:1904:2097:2447| Int)
(declare-const |K:623:624:627:1899:2060:2410| Int)
(declare-const __VERIFIER_assert__cond___62 Int)
(declare-const |phi___VERIFIER_assert__cond___125:1928:2073:2423| Int)
(declare-const |phi___VERIFIER_assert__cond___20:952:965:2106| Int)
(declare-const __VERIFIER_assert__cond___52 Int)
(declare-const |phi___VERIFIER_assert__cond___146:1907:2094:2444| Int)
(declare-const __VERIFIER_assert__cond___17 Int)
(declare-const __VERIFIER_assert__cond___58 Int)
(declare-const __VERIFIER_assert__cond___133 Int)
(declare-const |phi___VERIFIER_assert__cond___60:880:1034:2175| Int)
(declare-const |phi___VERIFIER_assert__cond___118:752:1942:2292| Int)
(declare-const |phi___VERIFIER_assert__cond___121:749:1945:2295| Int)
(declare-const |phi___VERIFIER_assert__cond___21:951:966:2107| Int)
(declare-const |phi___VERIFIER_assert__cond___129:1924:2077:2427| Int)
(declare-const |phi_main__j:754:1940:2290| Int)
(declare-const |phi___VERIFIER_assert__cond___90:818:1093:2234| Int)
(declare-const __VERIFIER_assert__cond___122 Int)
(declare-const |phi___VERIFIER_assert__cond___55:885:1029:2170| Int)
(declare-const |phi___VERIFIER_assert__cond___144:1909:2092:2442| Int)
(declare-const __VERIFIER_assert__cond___19 Int)
(declare-const |phi___VERIFIER_assert__cond___83:825:1086:2227| Int)
(declare-const |phi___VERIFIER_assert__cond___143:727:1967:2317| Int)
(declare-const |phi___VERIFIER_assert__cond___130:1923:2078:2428| Int)
(declare-const |phi___VERIFIER_assert__cond___126:744:1950:2300| Int)
(declare-const |phi___VERIFIER_assert__cond___117:753:1941:2291| Int)
(declare-const |phi___VERIFIER_assert__cond___134:1919:2082:2432| Int)
(declare-const __VERIFIER_assert__cond___18 Int)
(declare-const __VERIFIER_assert__cond___24 Int)
(declare-const |phi___VERIFIER_assert__cond___122:713:1981:2331| Int)
(declare-const __VERIFIER_assert__cond___51 Int)
(declare-const |phi___VERIFIER_assert__cond___140:1913:2088:2438| Int)
(declare-const __VERIFIER_assert__cond___21 Int)
(declare-const __VERIFIER_assert__cond___87 Int)
(declare-const |phi___VERIFIER_assert__cond___125:745:1949:2299| Int)
(declare-const |phi___VERIFIER_assert__cond___59:881:1033:2174| Int)
(declare-const |phi___VERIFIER_assert__cond___128:742:1952:2302| Int)
(declare-const __VERIFIER_assert__cond___61 Int)
(declare-const __VERIFIER_assert__cond___125 Int)
(declare-const |phi___VERIFIER_assert__cond___134:736:1958:2308| Int)
(declare-const |phi_main__j:719:1975:2325| Int)
(declare-const |phi___VERIFIER_assert__cond___61:879:1035:2176| Int)
(declare-const |phi___VERIFIER_assert__cond___51:889:1025:2166| Int)
(declare-const |phi___VERIFIER_assert__cond___22:950:967:2108| Int)
(declare-const |phi___VERIFIER_assert__cond___27:945:972:2113| Int)
(declare-const |phi_main__j:826:1085:2226| Int)
(declare-const |phi_main__i:755:1939:2289| Int)
(declare-const |phi___VERIFIER_assert__cond___140:730:1964:2314| Int)
(declare-const |phi___VERIFIER_assert__cond___131:704:1990:2340| Int)
(declare-const |phi___VERIFIER_assert__cond___136:734:1960:2310| Int)
(declare-const |phi___VERIFIER_assert__cond___132:1921:2080:2430| Int)
(declare-const |phi___VERIFIER_assert__cond___15:957:960:2101| Int)
(declare-const __VERIFIER_assert__cond___92 Int)
(declare-const |phi___VERIFIER_assert__cond___85:823:1088:2229| Int)
(declare-const __VERIFIER_assert__cond___20 Int)
(declare-const |phi___VERIFIER_assert__cond___139:1914:2087:2437| Int)
(declare-const __VERIFIER_assert__cond___28 Int)
(declare-const |phi_main__j:892:1022:2163| Int)
(declare-const __VERIFIER_assert__cond___118 Int)
(declare-const |phi___VERIFIER_assert__cond___26:946:971:2112| Int)
(declare-const |phi___VERIFIER_assert__cond___122:1931:2070:2420| Int)
(declare-const |phi___VERIFIER_assert__cond___118:1935:2066:2416| Int)
(declare-const |phi___VERIFIER_assert__cond___86:822:1089:2230| Int)
(declare-const |phi___VERIFIER_assert__cond___130:740:1954:2304| Int)
(declare-const |phi___VERIFIER_assert__cond___122:748:1946:2296| Int)
(declare-const __VERIFIER_assert__cond___22 Int)
(declare-const |phi___VERIFIER_assert__cond___147:1906:2095:2445| Int)
(declare-const |phi___VERIFIER_assert__cond___126:1927:2074:2424| Int)
(declare-const __VERIFIER_assert__cond___26 Int)
(declare-const |phi___VERIFIER_assert__cond___17:955:962:2103| Int)
(declare-const |phi___VERIFIER_assert__cond___120:1933:2068:2418| Int)
(declare-const |phi___VERIFIER_assert__cond___132:738:1956:2306| Int)
(declare-const |phi___VERIFIER_assert__cond___133:737:1957:2307| Int)
(declare-const |phi___VERIFIER_assert__cond___25:947:970:2111| Int)
(declare-const |phi___VERIFIER_assert__cond___121:1932:2069:2419| Int)
(declare-const |main__i':616:760:2059:2409| Int)
(declare-const |phi_main__i:1938:2063:2413| Int)
(declare-const |phi___VERIFIER_assert__cond___50:890:1024:2165| Int)
(declare-const __VERIFIER_assert__cond___90 Int)
(declare-const |phi___VERIFIER_assert__cond___124:746:1948:2298| Int)
(declare-const |phi___VERIFIER_assert__cond___84:824:1087:2228| Int)
(declare-const __VERIFIER_assert__cond___129 Int)
(declare-const |phi___VERIFIER_assert__cond___138:1915:2086:2436| Int)
(declare-const |phi___VERIFIER_assert__cond___149:721:1973:2323| Int)
(declare-const |phi___VERIFIER_assert__cond___127:743:1951:2301| Int)
(declare-const |phi___VERIFIER_assert__cond___145:1908:2093:2443| Int)
(declare-const |phi___VERIFIER_assert__cond___123:1930:2071:2421| Int)
(declare-const __VERIFIER_assert__cond___134 Int)
(declare-const |phi___VERIFIER_assert__cond___127:708:1986:2336| Int)
(declare-const |phi___VERIFIER_assert__cond___129:706:1988:2338| Int)
(declare-const __VERIFIER_assert__cond___132 Int)
(declare-const |phi___VERIFIER_assert__cond___95:813:1098:2239| Int)
(declare-const |phi___VERIFIER_assert__cond___131:739:1955:2305| Int)
(declare-const __VERIFIER_assert__cond___94 Int)
(declare-const |phi___VERIFIER_assert__cond___128:707:1987:2337| Int)
(declare-const |phi___VERIFIER_assert__cond___123:747:1947:2297| Int)
(declare-const |phi___VERIFIER_assert__cond___57:883:1031:2172| Int)
(declare-const |phi___VERIFIER_assert__cond___119:1934:2067:2417| Int)
(declare-const |phi___VERIFIER_assert__cond___92:816:1095:2236| Int)
(declare-const __VERIFIER_assert__cond___53 Int)
(declare-const |phi___VERIFIER_assert__cond___151:1902:2099:2449| Int)
(declare-const __VERIFIER_assert__cond___27 Int)
(declare-const |phi___VERIFIER_assert__cond___136:1917:2084:2434| Int)
(declare-const |phi___VERIFIER_assert__cond___18:954:963:2104| Int)
(declare-const |phi___VERIFIER_assert__cond___23:949:968:2109| Int)
(declare-const |phi_main__j:1937:2064:2414| Int)
(declare-const |phi___VERIFIER_assert__cond___121:714:1980:2330| Int)
(declare-const |phi___VERIFIER_assert__cond___147:723:1971:2321| Int)
(declare-const __VERIFIER_assert__cond___117 Int)
(declare-const __VERIFIER_assert__cond___96 Int)
(declare-const |phi___VERIFIER_assert__cond___148:722:1972:2322| Int)
(declare-const |phi___VERIFIER_assert__cond___118:717:1977:2327| Int)
(declare-const |phi___VERIFIER_assert__cond___28:944:973:2114| Int)
(declare-const |phi___VERIFIER_assert__cond___123:712:1982:2332| Int)
(declare-const |phi___VERIFIER_assert__cond___124:1929:2072:2422| Int)
(declare-const |phi___VERIFIER_assert__cond___128:1925:2076:2426| Int)
(declare-const __VERIFIER_assert__cond___25 Int)
(declare-const __VERIFIER_assert__cond___128 Int)
(declare-const |__VERIFIER_assert__cond___134':630:758:2057:2407| Int)
(declare-const |main__j':617:625:628:1900:2061:2411| Int)
(declare-const |phi___VERIFIER_assert__cond___88:820:1091:2232| Int)
(declare-const __VERIFIER_assert__cond___89 Int)
(declare-const |phi___VERIFIER_assert__cond___137:733:1961:2311| Int)
(declare-const |phi___VERIFIER_assert__cond___150:1903:2098:2448| Int)
(declare-const __VERIFIER_assert__cond___16 Int)
(declare-const __VERIFIER_assert__cond___130 Int)
(declare-const |phi___VERIFIER_assert__cond___120:750:1944:2294| Int)
(declare-const |phi___VERIFIER_assert__cond___145:725:1969:2319| Int)
(declare-const |phi___VERIFIER_assert__cond___133:1920:2081:2431| Int)
(declare-const |phi___VERIFIER_assert__cond___58:882:1032:2173| Int)
(declare-const |phi___VERIFIER_assert__cond___19:953:964:2105| Int)
(declare-const |phi___VERIFIER_assert__cond___148:1905:2096:2446| Int)
(declare-const |phi___VERIFIER_assert__cond___137:1916:2085:2435| Int)
(declare-const |__VERIFIER_assert__cond___151':631:757:2056:2406| Int)
(declare-const __VERIFIER_assert__cond___15 Int)
(declare-const |phi___VERIFIER_assert__cond___94:814:1097:2238| Int)
(declare-const |phi___VERIFIER_assert__cond___54:886:1028:2169| Int)
(declare-const __VERIFIER_assert__cond___88 Int)
(declare-const |phi___VERIFIER_assert__cond___142:1911:2090:2440| Int)
(declare-const __VERIFIER_assert__cond___55 Int)
(declare-const |phi___VERIFIER_assert__cond___120:715:1979:2329| Int)
(declare-const |phi___VERIFIER_assert__cond___135:1918:2083:2433| Int)
(declare-const __VERIFIER_assert__cond___50 Int)
(declare-const |phi___VERIFIER_assert__cond___143:1910:2091:2441| Int)
(declare-const __VERIFIER_assert__cond___57 Int)
(declare-const __VERIFIER_assert__cond___86 Int)
(assert (and (< (- havoc) 0) (not (= (ite (<= (+ (- havoc) 1) 0) 1 0) 0))
               (not (= (ite (<= (+ (- havoc) 1) 0) 1 0) 0))
               (not (= (ite (<= (+ (- havoc) 1) 0) 1 0) 0))
               (not (= (ite (<= (+ (- havoc) 1) 0) 1 0) 0))
               (not (= (ite (<= (+ (- havoc) 1) 0) 1 0) 0))
               (not (= (ite (<= (+ (- havoc) 1) 0) 1 0) 0))
               (not (= (ite (<= (+ (- havoc) 1) 0) 1 0) 0))
               (not (= (ite (<= (+ (- havoc) 1) 0) 1 0) 0))
               (= (+ (- |phi_main__j:958:959:2100|) 8) 0)
               (= (+ (- |phi___VERIFIER_assert__cond___15:957:960:2101|)
                       __VERIFIER_assert__cond___15) 0)
               (= (+ (- |phi___VERIFIER_assert__cond___16:956:961:2102|)
                       __VERIFIER_assert__cond___16) 0)
               (= (+ (- |phi___VERIFIER_assert__cond___17:955:962:2103|)
                       __VERIFIER_assert__cond___17) 0)
               (= (+ (- |phi___VERIFIER_assert__cond___18:954:963:2104|)
                       __VERIFIER_assert__cond___18) 0)
               (= (+ (- |phi___VERIFIER_assert__cond___19:953:964:2105|)
                       __VERIFIER_assert__cond___19) 0)
               (= (+ (- |phi___VERIFIER_assert__cond___20:952:965:2106|)
                       __VERIFIER_assert__cond___20) 0)
               (= (+ (- |phi___VERIFIER_assert__cond___21:951:966:2107|)
                       __VERIFIER_assert__cond___21) 0)
               (= (+ (- |phi___VERIFIER_assert__cond___22:950:967:2108|)
                       __VERIFIER_assert__cond___22) 0)
               (= (+ (- |phi___VERIFIER_assert__cond___23:949:968:2109|)
                       __VERIFIER_assert__cond___23) 0)
               (= (+ (- |phi___VERIFIER_assert__cond___24:948:969:2110|)
                       __VERIFIER_assert__cond___24) 0)
               (= (+ (- |phi___VERIFIER_assert__cond___25:947:970:2111|)
                       __VERIFIER_assert__cond___25) 0)
               (= (+ (- |phi___VERIFIER_assert__cond___26:946:971:2112|)
                       __VERIFIER_assert__cond___26) 0)
               (= (+ (- |phi___VERIFIER_assert__cond___27:945:972:2113|)
                       __VERIFIER_assert__cond___27) 0)
               (= (+ (- |phi___VERIFIER_assert__cond___28:944:973:2114|)
                       __VERIFIER_assert__cond___28) 0) (< (+ (- havoc) 1) 0)
               (not (= (ite (<= (+ (- havoc) 2) 0) 1 0) 0))
               (not (= (ite (<= (+ (- havoc) 2) 0) 1 0) 0))
               (not (= (ite (<= (+ (- havoc) 2) 0) 1 0) 0))
               (not (= (ite (<= (+ (- havoc) 2) 0) 1 0) 0))
               (not (= (ite (<= (+ (- havoc) 2) 0) 1 0) 0))
               (not (= (ite (<= (+ (- havoc) 2) 0) 1 0) 0))
               (not (= (ite (<= (+ (- havoc) 2) 0) 1 0) 0))
               (not (= (ite (<= (+ (- havoc) 2) 0) 1 0) 0))
               (= (+ (- |phi_main__j:892:1022:2163|) 8) 0)
               (= (+ (- |phi___VERIFIER_assert__cond___49:891:1023:2164|)
                       __VERIFIER_assert__cond___49) 0)
               (= (+ (- |phi___VERIFIER_assert__cond___50:890:1024:2165|)
                       __VERIFIER_assert__cond___50) 0)
               (= (+ (- |phi___VERIFIER_assert__cond___51:889:1025:2166|)
                       __VERIFIER_assert__cond___51) 0)
               (= (+ (- |phi___VERIFIER_assert__cond___52:888:1026:2167|)
                       __VERIFIER_assert__cond___52) 0)
               (= (+ (- |phi___VERIFIER_assert__cond___53:887:1027:2168|)
                       __VERIFIER_assert__cond___53) 0)
               (= (+ (- |phi___VERIFIER_assert__cond___54:886:1028:2169|)
                       __VERIFIER_assert__cond___54) 0)
               (= (+ (- |phi___VERIFIER_assert__cond___55:885:1029:2170|)
                       __VERIFIER_assert__cond___55) 0)
               (= (+ (- |phi___VERIFIER_assert__cond___56:884:1030:2171|)
                       __VERIFIER_assert__cond___56) 0)
               (= (+ (- |phi___VERIFIER_assert__cond___57:883:1031:2172|)
                       __VERIFIER_assert__cond___57) 0)
               (= (+ (- |phi___VERIFIER_assert__cond___58:882:1032:2173|)
                       __VERIFIER_assert__cond___58) 0)
               (= (+ (- |phi___VERIFIER_assert__cond___59:881:1033:2174|)
                       __VERIFIER_assert__cond___59) 0)
               (= (+ (- |phi___VERIFIER_assert__cond___60:880:1034:2175|)
                       __VERIFIER_assert__cond___60) 0)
               (= (+ (- |phi___VERIFIER_assert__cond___61:879:1035:2176|)
                       __VERIFIER_assert__cond___61) 0)
               (= (+ (- |phi___VERIFIER_assert__cond___62:878:1036:2177|)
                       __VERIFIER_assert__cond___62) 0) (< (+ (- havoc) 2) 0)
               (not (= (ite (<= (+ (- havoc) 3) 0) 1 0) 0))
               (not (= (ite (<= (+ (- havoc) 3) 0) 1 0) 0))
               (not (= (ite (<= (+ (- havoc) 3) 0) 1 0) 0))
               (not (= (ite (<= (+ (- havoc) 3) 0) 1 0) 0))
               (not (= (ite (<= (+ (- havoc) 3) 0) 1 0) 0))
               (not (= (ite (<= (+ (- havoc) 3) 0) 1 0) 0))
               (not (= (ite (<= (+ (- havoc) 3) 0) 1 0) 0))
               (not (= (ite (<= (+ (- havoc) 3) 0) 1 0) 0))
               (= (+ (- |phi_main__j:826:1085:2226|) 8) 0)
               (= (+ (- |phi___VERIFIER_assert__cond___83:825:1086:2227|)
                       __VERIFIER_assert__cond___83) 0)
               (= (+ (- |phi___VERIFIER_assert__cond___84:824:1087:2228|)
                       __VERIFIER_assert__cond___84) 0)
               (= (+ (- |phi___VERIFIER_assert__cond___85:823:1088:2229|)
                       __VERIFIER_assert__cond___85) 0)
               (= (+ (- |phi___VERIFIER_assert__cond___86:822:1089:2230|)
                       __VERIFIER_assert__cond___86) 0)
               (= (+ (- |phi___VERIFIER_assert__cond___87:821:1090:2231|)
                       __VERIFIER_assert__cond___87) 0)
               (= (+ (- |phi___VERIFIER_assert__cond___88:820:1091:2232|)
                       __VERIFIER_assert__cond___88) 0)
               (= (+ (- |phi___VERIFIER_assert__cond___89:819:1092:2233|)
                       __VERIFIER_assert__cond___89) 0)
               (= (+ (- |phi___VERIFIER_assert__cond___90:818:1093:2234|)
                       __VERIFIER_assert__cond___90) 0)
               (= (+ (- |phi___VERIFIER_assert__cond___91:817:1094:2235|)
                       __VERIFIER_assert__cond___91) 0)
               (= (+ (- |phi___VERIFIER_assert__cond___92:816:1095:2236|)
                       __VERIFIER_assert__cond___92) 0)
               (= (+ (- |phi___VERIFIER_assert__cond___93:815:1096:2237|)
                       __VERIFIER_assert__cond___93) 0)
               (= (+ (- |phi___VERIFIER_assert__cond___94:814:1097:2238|)
                       __VERIFIER_assert__cond___94) 0)
               (= (+ (- |phi___VERIFIER_assert__cond___95:813:1098:2239|)
                       __VERIFIER_assert__cond___95) 0)
               (= (+ (- |phi___VERIFIER_assert__cond___96:812:1099:2240|)
                       __VERIFIER_assert__cond___96) 0) (< (+ (- havoc) 3) 0)
               (not (= (ite (<= (+ (- havoc) 4) 0) 1 0) 0))
               (not (= (ite (<= (+ (- havoc) 4) 0) 1 0) 0))
               (not (= (ite (<= (+ (- havoc) 4) 0) 1 0) 0))
               (not (= (ite (<= (+ (- havoc) 4) 0) 1 0) 0))
               (not (= (ite (<= (+ (- havoc) 4) 0) 1 0) 0))
               (not (= (ite (<= (+ (- havoc) 4) 0) 1 0) 0))
               (not (= (ite (<= (+ (- havoc) 4) 0) 1 0) 0))
               (not (= (ite (<= (+ (- havoc) 4) 0) 1 0) 0))
               (= (+ (- |phi_main__j:719:1975:2325|) 8) 0)
               (= (+ (- |phi___VERIFIER_assert__cond___117:718:1976:2326|)
                       __VERIFIER_assert__cond___117) 0)
               (= (+ (- |phi___VERIFIER_assert__cond___118:717:1977:2327|)
                       __VERIFIER_assert__cond___118) 0)
               (= (+ (- |phi___VERIFIER_assert__cond___119:716:1978:2328|)
                       __VERIFIER_assert__cond___119) 0)
               (= (+ (- |phi___VERIFIER_assert__cond___120:715:1979:2329|)
                       __VERIFIER_assert__cond___120) 0)
               (= (+ (- |phi___VERIFIER_assert__cond___121:714:1980:2330|)
                       __VERIFIER_assert__cond___121) 0)
               (= (+ (- |phi___VERIFIER_assert__cond___122:713:1981:2331|)
                       __VERIFIER_assert__cond___122) 0)
               (= (+ (- |phi___VERIFIER_assert__cond___123:712:1982:2332|)
                       __VERIFIER_assert__cond___123) 0)
               (= (+ (- |phi___VERIFIER_assert__cond___124:711:1983:2333|)
                       __VERIFIER_assert__cond___124) 0)
               (= (+ (- |phi___VERIFIER_assert__cond___125:710:1984:2334|)
                       __VERIFIER_assert__cond___125) 0)
               (= (+ (- |phi___VERIFIER_assert__cond___126:709:1985:2335|)
                       __VERIFIER_assert__cond___126) 0)
               (= (+ (- |phi___VERIFIER_assert__cond___127:708:1986:2336|)
                       __VERIFIER_assert__cond___127) 0)
               (= (+ (- |phi___VERIFIER_assert__cond___128:707:1987:2337|)
                       __VERIFIER_assert__cond___128) 0)
               (= (+ (- |phi___VERIFIER_assert__cond___129:706:1988:2338|)
                       __VERIFIER_assert__cond___129) 0)
               (= (+ (- |phi___VERIFIER_assert__cond___130:705:1989:2339|)
                       __VERIFIER_assert__cond___130) 0)
               (= (+ (- |phi___VERIFIER_assert__cond___131:704:1990:2340|)
                       __VERIFIER_assert__cond___131) 0)
               (= (+ (- |phi___VERIFIER_assert__cond___132:703:1991:2341|)
                       __VERIFIER_assert__cond___132) 0)
               (< (+ (- havoc) 4) 0)
               (not (= (ite (<= (+ (- havoc) 5) 0) 1 0) 0))
               (not (= (ite (<= (+ (- havoc) 5) 0) 1 0) 0))
               (not (= (ite (<= (+ (- havoc) 5) 0) 1 0) 0))
               (not (= (ite (<= (+ (- havoc) 5) 0) 1 0) 0))
               (not (= (ite (<= (+ (- havoc) 5) 0) 1 0) 0))
               (not (= (ite (<= (+ (- havoc) 5) 0) 1 0) 0))
               (not (= (ite (<= (+ (- havoc) 5) 0) 1 0) 0))
               (not (= (ite (<= (+ (- havoc) 5) 0) 1 0) 0))
               (= (+ (- |phi_main__i:755:1939:2289|) 4) 0)
               (= (+ (- |phi_main__j:754:1940:2290|) 7) 0)
               (= (+ |phi___VERIFIER_assert__cond___117:718:1976:2326|
                       (- |phi___VERIFIER_assert__cond___117:753:1941:2291|)) 0)
               (= (+ |phi___VERIFIER_assert__cond___118:717:1977:2327|
                       (- |phi___VERIFIER_assert__cond___118:752:1942:2292|)) 0)
               (= (+ |phi___VERIFIER_assert__cond___119:716:1978:2328|
                       (- |phi___VERIFIER_assert__cond___119:751:1943:2293|)) 0)
               (= (+ |phi___VERIFIER_assert__cond___120:715:1979:2329|
                       (- |phi___VERIFIER_assert__cond___120:750:1944:2294|)) 0)
               (= (+ |phi___VERIFIER_assert__cond___121:714:1980:2330|
                       (- |phi___VERIFIER_assert__cond___121:749:1945:2295|)) 0)
               (= (+ |phi___VERIFIER_assert__cond___122:713:1981:2331|
                       (- |phi___VERIFIER_assert__cond___122:748:1946:2296|)) 0)
               (= (+ |phi___VERIFIER_assert__cond___123:712:1982:2332|
                       (- |phi___VERIFIER_assert__cond___123:747:1947:2297|)) 0)
               (= (+ |phi___VERIFIER_assert__cond___124:711:1983:2333|
                       (- |phi___VERIFIER_assert__cond___124:746:1948:2298|)) 0)
               (= (+ |phi___VERIFIER_assert__cond___125:710:1984:2334|
                       (- |phi___VERIFIER_assert__cond___125:745:1949:2299|)) 0)
               (= (+ |phi___VERIFIER_assert__cond___126:709:1985:2335|
                       (- |phi___VERIFIER_assert__cond___126:744:1950:2300|)) 0)
               (= (+ |phi___VERIFIER_assert__cond___127:708:1986:2336|
                       (- |phi___VERIFIER_assert__cond___127:743:1951:2301|)) 0)
               (= (+ |phi___VERIFIER_assert__cond___128:707:1987:2337|
                       (- |phi___VERIFIER_assert__cond___128:742:1952:2302|)) 0)
               (= (+ |phi___VERIFIER_assert__cond___129:706:1988:2338|
                       (- |phi___VERIFIER_assert__cond___129:741:1953:2303|)) 0)
               (= (+ |phi___VERIFIER_assert__cond___130:705:1989:2339|
                       (- |phi___VERIFIER_assert__cond___130:740:1954:2304|)) 0)
               (= (+ |phi___VERIFIER_assert__cond___131:704:1990:2340|
                       (- |phi___VERIFIER_assert__cond___131:739:1955:2305|)) 0)
               (= (+ |phi___VERIFIER_assert__cond___132:703:1991:2341|
                       (- |phi___VERIFIER_assert__cond___132:738:1956:2306|)) 0)
               (= (+ __VERIFIER_assert__cond___133
                       (- |phi___VERIFIER_assert__cond___133:737:1957:2307|)) 0)
               (= (+ __VERIFIER_assert__cond___134
                       (- |phi___VERIFIER_assert__cond___134:736:1958:2308|)) 0)
               (= (+ (ite (<= (+ (- havoc) 5) 0) 1 0)
                       (- |phi___VERIFIER_assert__cond___135:735:1959:2309|)) 0)
               (= (+ (- |phi___VERIFIER_assert__cond___136:734:1960:2310|) 1) 0)
               (= (+ (ite (<= (+ (- havoc) 5) 0) 1 0)
                       (- |phi___VERIFIER_assert__cond___137:733:1961:2311|)) 0)
               (= (+ (- |phi___VERIFIER_assert__cond___138:732:1962:2312|) 1) 0)
               (= (+ (ite (<= (+ (- havoc) 5) 0) 1 0)
                       (- |phi___VERIFIER_assert__cond___139:731:1963:2313|)) 0)
               (= (+ (- |phi___VERIFIER_assert__cond___140:730:1964:2314|) 1) 0)
               (= (+ (ite (<= (+ (- havoc) 5) 0) 1 0)
                       (- |phi___VERIFIER_assert__cond___141:729:1965:2315|)) 0)
               (= (+ (- |phi___VERIFIER_assert__cond___142:728:1966:2316|) 1) 0)
               (= (+ (ite (<= (+ (- havoc) 5) 0) 1 0)
                       (- |phi___VERIFIER_assert__cond___143:727:1967:2317|)) 0)
               (= (+ (- |phi___VERIFIER_assert__cond___144:726:1968:2318|) 1) 0)
               (= (+ (ite (<= (+ (- havoc) 5) 0) 1 0)
                       (- |phi___VERIFIER_assert__cond___145:725:1969:2319|)) 0)
               (= (+ (- |phi___VERIFIER_assert__cond___146:724:1970:2320|) 1) 0)
               (= (+ (ite (<= (+ (- havoc) 5) 0) 1 0)
                       (- |phi___VERIFIER_assert__cond___147:723:1971:2321|)) 0)
               (= (+ (- |phi___VERIFIER_assert__cond___148:722:1972:2322|) 1) 0)
               (= (+ (ite (<= (+ (- havoc) 5) 0) 1 0)
                       (- |phi___VERIFIER_assert__cond___149:721:1973:2323|)) 0)
               (= (+ (- |phi___VERIFIER_assert__cond___150:720:1974:2324|) 1) 0)
               (or (not (and (<= (- |K:639:756:2055:2405|) 0)
                               (<= |K:639:756:2055:2405| 0)))
                     (= (+ (- __VERIFIER_assert__cond___151)
                             |__VERIFIER_assert__cond___151':631:757:2056:2406|) 0))
               (or (not (<= (+ (- |K:639:756:2055:2405|) 1) 0))
                     (= (+ |__VERIFIER_assert__cond___151':631:757:2056:2406|
                             -1) 0))
               (or (not (and (<= (- |K:639:756:2055:2405|) 0)
                               (<= |K:639:756:2055:2405| 0)))
                     (= (+ |__VERIFIER_assert__cond___134':630:758:2057:2407|
                             (- |phi___VERIFIER_assert__cond___134:736:1958:2308|)) 0))
               (or (not (<= (+ (- |K:639:756:2055:2405|) 1) 0))
                     (= (+ |__VERIFIER_assert__cond___134':630:758:2057:2407|
                             -1) 0))
               (or (not (<= (- |K:639:756:2055:2405|) 0))
                     (<= (+ (* 8 |main__i':616:760:2059:2409|)
                              |main__j':617:759:2058:2408|
                              (- |K:639:756:2055:2405|)
                              (- |phi_main__j:754:1940:2290|)
                              (* -8 |phi_main__i:755:1939:2289|)) 0))
               (or (not (<= (- |K:639:756:2055:2405|) 0))
                     (<= (+ |main__i':616:760:2059:2409|
                              (* 2 |K:639:756:2055:2405|)
                              (- |phi_main__i:755:1939:2289|)
                              (- (* |K:639:756:2055:2405| havoc))) 0))
               (or (not (<= (- |K:639:756:2055:2405|) 0))
                     (<= (+ (- |main__i':616:760:2059:2409|)
                              |phi_main__i:755:1939:2289|) 0))
               (or (and (= |K:639:756:2055:2405| 0)
                          (= (+ __VERIFIER_assert__cond___151
                                  (- |__VERIFIER_assert__cond___151':631:757:2056:2406|)) 0)
                          (= (+ (- |__VERIFIER_assert__cond___134':630:758:2057:2407|)
                                  |phi___VERIFIER_assert__cond___134:736:1958:2308|) 0)
                          (= (+ (- |main__j':617:759:2058:2408|)
                                  |phi_main__j:754:1940:2290|) 0)
                          (= (+ (- |main__i':616:760:2059:2409|)
                                  |phi_main__i:755:1939:2289|) 0))
                     (and (<= (+ (- |K:639:756:2055:2405|) 1) 0)
                            (<= (+ |phi_main__i:755:1939:2289| (- havoc) 1) 0)
                            (<= (- |phi_main__j:754:1940:2290|) 0)
                            (<= (+ (- |phi_main__i:755:1939:2289|) 1) 0)
                            (= (+ |__VERIFIER_assert__cond___134':630:758:2057:2407|
                                    -1) 0)
                            (= (+ |__VERIFIER_assert__cond___151':631:757:2056:2406|
                                    -1) 0)
                            (<= (+ |main__i':616:760:2059:2409| (- havoc) 1) 0)
                            (<= (+ |main__j':617:759:2058:2408| -7) 0)
                            (<= (- |main__j':617:759:2058:2408|) 0)
                            (<= (+ (- |main__i':616:760:2059:2409|) 1) 0)
                            (<= (+ (- |main__i':616:760:2059:2409|)
                                     (- |main__j':617:759:2058:2408|) 2) 0)))
               (<= (- |K:639:756:2055:2405|) 0)
               (<= (- |main__j':617:759:2058:2408|) 0) (< (- havoc) 0)
               (< (- |main__i':616:760:2059:2409|) 0)
               (or (not (and (<= (- |K:623:624:627:1899:2060:2410|) 0)
                               (<= |K:623:624:627:1899:2060:2410| 0)))
                     (= (+ |main__j':617:625:628:1900:2061:2411|
                             (- |main__j':617:759:2058:2408|) -1) 0))
               (or (not (<= (+ (- |K:623:624:627:1899:2060:2410|) 1) 0))
                     (= |main__j':617:625:628:1900:2061:2411| 0))
               (or (not (<= (- |K:623:624:627:1899:2060:2410|) 0))
                     (= (+ |main__i':616:626:629:1901:2062:2412|
                             (- |K:623:624:627:1899:2060:2410|)
                             (- |main__i':616:760:2059:2409|)) 0))
               (or (not (<= (- |K:623:624:627:1899:2060:2410|) 0))
                     (<= (+ |main__j':617:625:628:1900:2061:2411|
                              (* 8 |K:623:624:627:1899:2060:2410|)
                              (- |main__j':617:759:2058:2408|) -1) 0))
               (or (and (= |K:623:624:627:1899:2060:2410| 0)
                          (= (+ (- |main__j':617:625:628:1900:2061:2411|)
                                  |main__j':617:759:2058:2408| 1) 0)
                          (= (+ (- |main__i':616:626:629:1901:2062:2412|)
                                  |main__i':616:760:2059:2409|) 0))
                     (and (<= (+ (- |K:623:624:627:1899:2060:2410|) 1) 0)
                            (<= (+ |main__i':616:760:2059:2409| (- havoc) 2) 0)
                            (<= (+ (- |main__j':617:759:2058:2408|) 7) 0)
                            (<= (+ (- |main__i':616:760:2059:2409|) 1) 0)
                            (= |main__j':617:625:628:1900:2061:2411| 0)
                            (<= (+ |main__i':616:626:629:1901:2062:2412|
                                     (- havoc) 1) 0)
                            (<= (+ (- |main__i':616:626:629:1901:2062:2412|)
                                     2) 0)))
               (<= (- |K:623:624:627:1899:2060:2410|) 0)
               (<= (- |main__j':617:625:628:1900:2061:2411|) 0)
               (< (- havoc) 0)
               (< (- |main__i':616:626:629:1901:2062:2412|) 0)
               (< (+ |main__j':617:625:628:1900:2061:2411| -8) 0)
               (not (= (ite (<= (+ |main__i':616:626:629:1901:2062:2412|
                                     (- havoc) 1) 0)
                            1 0) 0))
               (= (+ (- |phi_main__i:1938:2063:2413|)
                       |main__i':616:626:629:1901:2062:2412|) 0)
               (= (+ (- |phi_main__j:1937:2064:2414|)
                       |main__j':617:625:628:1900:2061:2411|) 0)
               (= (+ (- |phi___VERIFIER_assert__cond___117:1936:2065:2415|)
                       |phi___VERIFIER_assert__cond___117:753:1941:2291|) 0)
               (= (+ (- |phi___VERIFIER_assert__cond___118:1935:2066:2416|)
                       |phi___VERIFIER_assert__cond___118:752:1942:2292|) 0)
               (= (+ (- |phi___VERIFIER_assert__cond___119:1934:2067:2417|)
                       |phi___VERIFIER_assert__cond___119:751:1943:2293|) 0)
               (= (+ (- |phi___VERIFIER_assert__cond___120:1933:2068:2418|)
                       |phi___VERIFIER_assert__cond___120:750:1944:2294|) 0)
               (= (+ (- |phi___VERIFIER_assert__cond___121:1932:2069:2419|)
                       |phi___VERIFIER_assert__cond___121:749:1945:2295|) 0)
               (= (+ (- |phi___VERIFIER_assert__cond___122:1931:2070:2420|)
                       |phi___VERIFIER_assert__cond___122:748:1946:2296|) 0)
               (= (+ (- |phi___VERIFIER_assert__cond___123:1930:2071:2421|)
                       |phi___VERIFIER_assert__cond___123:747:1947:2297|) 0)
               (= (+ (- |phi___VERIFIER_assert__cond___124:1929:2072:2422|)
                       |phi___VERIFIER_assert__cond___124:746:1948:2298|) 0)
               (= (+ (- |phi___VERIFIER_assert__cond___125:1928:2073:2423|)
                       |phi___VERIFIER_assert__cond___125:745:1949:2299|) 0)
               (= (+ (- |phi___VERIFIER_assert__cond___126:1927:2074:2424|)
                       |phi___VERIFIER_assert__cond___126:744:1950:2300|) 0)
               (= (+ (- |phi___VERIFIER_assert__cond___127:1926:2075:2425|)
                       |phi___VERIFIER_assert__cond___127:743:1951:2301|) 0)
               (= (+ (- |phi___VERIFIER_assert__cond___128:1925:2076:2426|)
                       |phi___VERIFIER_assert__cond___128:742:1952:2302|) 0)
               (= (+ (- |phi___VERIFIER_assert__cond___129:1924:2077:2427|)
                       |phi___VERIFIER_assert__cond___129:741:1953:2303|) 0)
               (= (+ (- |phi___VERIFIER_assert__cond___130:1923:2078:2428|)
                       |phi___VERIFIER_assert__cond___130:740:1954:2304|) 0)
               (= (+ (- |phi___VERIFIER_assert__cond___131:1922:2079:2429|)
                       |phi___VERIFIER_assert__cond___131:739:1955:2305|) 0)
               (= (+ (- |phi___VERIFIER_assert__cond___132:1921:2080:2430|)
                       |phi___VERIFIER_assert__cond___132:738:1956:2306|) 0)
               (= (+ (- |phi___VERIFIER_assert__cond___133:1920:2081:2431|)
                       |phi___VERIFIER_assert__cond___133:737:1957:2307|) 0)
               (= (+ (- |phi___VERIFIER_assert__cond___134:1919:2082:2432|)
                       |__VERIFIER_assert__cond___134':630:758:2057:2407|) 0)
               (= (+ (- |phi___VERIFIER_assert__cond___135:1918:2083:2433|)
                       |phi___VERIFIER_assert__cond___135:735:1959:2309|) 0)
               (= (+ (- |phi___VERIFIER_assert__cond___136:1917:2084:2434|)
                       |phi___VERIFIER_assert__cond___136:734:1960:2310|) 0)
               (= (+ (- |phi___VERIFIER_assert__cond___137:1916:2085:2435|)
                       |phi___VERIFIER_assert__cond___137:733:1961:2311|) 0)
               (= (+ (- |phi___VERIFIER_assert__cond___138:1915:2086:2436|)
                       |phi___VERIFIER_assert__cond___138:732:1962:2312|) 0)
               (= (+ (- |phi___VERIFIER_assert__cond___139:1914:2087:2437|)
                       |phi___VERIFIER_assert__cond___139:731:1963:2313|) 0)
               (= (+ (- |phi___VERIFIER_assert__cond___140:1913:2088:2438|)
                       |phi___VERIFIER_assert__cond___140:730:1964:2314|) 0)
               (= (+ (- |phi___VERIFIER_assert__cond___141:1912:2089:2439|)
                       |phi___VERIFIER_assert__cond___141:729:1965:2315|) 0)
               (= (+ (- |phi___VERIFIER_assert__cond___142:1911:2090:2440|)
                       |phi___VERIFIER_assert__cond___142:728:1966:2316|) 0)
               (= (+ (- |phi___VERIFIER_assert__cond___143:1910:2091:2441|)
                       |phi___VERIFIER_assert__cond___143:727:1967:2317|) 0)
               (= (+ (- |phi___VERIFIER_assert__cond___144:1909:2092:2442|)
                       |phi___VERIFIER_assert__cond___144:726:1968:2318|) 0)
               (= (+ (- |phi___VERIFIER_assert__cond___145:1908:2093:2443|)
                       |phi___VERIFIER_assert__cond___145:725:1969:2319|) 0)
               (= (+ (- |phi___VERIFIER_assert__cond___146:1907:2094:2444|)
                       |phi___VERIFIER_assert__cond___146:724:1970:2320|) 0)
               (= (+ (- |phi___VERIFIER_assert__cond___147:1906:2095:2445|)
                       |phi___VERIFIER_assert__cond___147:723:1971:2321|) 0)
               (= (+ (- |phi___VERIFIER_assert__cond___148:1905:2096:2446|)
                       |phi___VERIFIER_assert__cond___148:722:1972:2322|) 0)
               (= (+ (- |phi___VERIFIER_assert__cond___149:1904:2097:2447|)
                       |phi___VERIFIER_assert__cond___149:721:1973:2323|) 0)
               (= (+ (- |phi___VERIFIER_assert__cond___150:1903:2098:2448|)
                       |phi___VERIFIER_assert__cond___150:720:1974:2324|) 0)
               (= (+ (- |phi___VERIFIER_assert__cond___151:1902:2099:2449|)
                       (ite (<= (+ |main__i':616:626:629:1901:2062:2412|
                                     (- havoc) 1) 0)
                            1 0)) 0)
               (= (ite (< (+ (- |phi_main__i:1938:2063:2413|) -1) 0) 1 0) 0)))
(check-sat)
